maximize
OBJ:100x0 + 100x1 + 100x2 + 100x3 + 100x4 + 100x5 + 100x6 + 100x7 + 100x8 + 100x9 + 100x10 + 100x11 + 100x12 + 100x13 + 100x14 + 100x15 + 100x16 + 100x17 + 100x18 + 100x19 + 100x20 + 100x21 + 100x22 + 100x23 + 100x24 + 100x25 + 100x26 + 100x27 + 100x28 + 100x29 + 100x30 + 100x31 + 100x32 + 100x33 + 100x34 + 100x35 + 100x36 + 100x37 + 100x38 + 100x39 + 100x40 + 100x41 + 100x42 + 100x43 + 100x44 + 100x45 + 100x46 + 100x47 + 100x48 + 100x49 + 100x50 + 100x51 + 100x52 + 100x53 + 100x54 + 100x55 + 100x56 + 100x57 + 100x58 + 100x59 + 100x60 + 100x61 + 100x62 + 100x63 + 100x64 + 100x65 + 100x66 + 100x67 + 100x68 + 100x69 - y7_17 - y7_26 - y18_26 - y15_39 - y17_58 - y26_39 - y7_35 - y28_58 - y5_65 - y8_9 - y40_41 - y0_14 - y40_50 - y0_23 - y41_42 - y2_32 - y25_34 - y10_45 - y3_6 - y2_59 - y3_24 - y43_60 - y22_37 - y2_68 - y43_69 - y22_46 - y13_65 - y35_65 - y3_42 - y14_42 - y47_48 - y15_25 - y17_44 - y55_61 - y17_53 - y18_30 - y28_62 - y5_69 - y6_34 - y29_36 - y6_43 - y40_45 - y21_41 - y6_52 - y6_61 - y29_63 - y40_63 - y10_31 - y10_40 - y33_42 - y25_47 - y43_55 - y3_28 - y32_64 - y3_37 - y24_69 - y55_56 - y36_52 - y47_52 - y5_46 - y36_61 - y59_63 - y5_55 - y9_53 - y58_67 - y21_27 - y48_53 - y40_49 - y21_54 - y10_26 - y10_44 - y51_54 - y3_14 - y13_46 - y35_46 - y43_59 - y24_55 - y14_32 - y16_51 - y16_69 - y55_60 - y17_43 - y36_56 - y6_15 - y9_48 - y50_58 - y29_35 - y9_66 - y50_67 - y21_40 - y10_21 - y2_17 - y54_55 - y32_45 - y43_54 - y16_46 - y35_59 - y17_20 - y1_66 - y35_68 - y65_69 - y17_29 - y5_36 - y28_38 - y47_51 - y9_34 - y5_45 - y6_10 - y28_47 - y9_43 - y17_56 - y5_63 - y6_28 - y50_62 - y42_58 - y21_35 - y27_69 - y42_67 - y10_16 - y10_25 - y12_44 - y39_61 - y2_21 - y54_59 - y62_63 - y23_53 - y2_30 - y20_66 - y3_4 - y4_58 - y24_36 - y4_67 - y13_45 - y43_58 - y13_54 - y16_50 - y13_63 - y5_22 - y57_60 - y57_69 - y68_69 - y6_14 - y42_44 - y8_51 - y21_30 - y50_66 - y30_60 - y10_11 - y31_43 - y20_52 - y31_52 - y4_44 - y12_57 - y23_57 - y16_18 - y12_66 - y1_29 - y13_31 - y23_66 - y53_67 - y35_40 - y16_36 - y1_47 - y13_49 - y35_58 - y1_65 - y65_68 - y9_15 - y5_26 - y17_28 - y9_24 - y49_60 - y5_35 - y38_69 - y7_63 - y6_18 - y19_46 - y42_48 - y27_59 - y19_55 - y27_68 - y11_51 - y30_64 - y20_29 - y39_42 - y0_69 - y11_69 - y23_34 - y20_47 - y31_47 - y12_43 - y23_43 - y23_52 - y1_15 - y31_65 - y13_26 - y32_39 - y16_22 - y1_33 - y13_35 - y34_67 - y37_63 - y16_49 - y9_10 - y38_46 - y17_23 - y46_59 - y57_59 - y5_30 - y19_41 - y30_41 - y8_50 - y42_52 - y27_63 - y8_59 - y0_55 - y19_68 - y20_33 - y30_68 - y0_64 - y11_64 - y12_29 - y12_38 - y20_51 - y31_51 - y23_47 - y1_10 - y4_43 - y12_56 - y16_17 - y34_53 - y1_28 - y13_30 - y53_66 - y64_66 - y37_58 - y5_7 - y38_41 - y5_16 - y65_67 - y26_48 - y46_63 - y38_59 - y38_68 - y27_31 - y19_27 - y27_40 - y19_36 - y0_32 - y11_32 - y19_45 - y0_41 - y19_54 - y42_56 - y12_15 - y30_63 - y20_28 - y31_37 - y23_33 - y1_5 - y1_14 - y1_23 - y24_25 - y37_44 - y45_57 - y45_66 - y56_66 - y14_60 - y26_34 - y15_43 - y26_43 - y18_39 - y15_52 - y49_54 - y8_13 - y26_61 - y18_57 - y0_18 - y18_66 - y19_31 - y27_44 - y8_40 - y19_40 - y30_40 - y8_49 - y30_49 - y41_46 - y12_19 - y20_32 - y12_28 - y41_64 - y4_24 - y44_60 - y12_37 - y23_37 - y25_56 - y37_39 - y45_52 - y37_48 - y22_59 - y22_68 - y37_66 - y15_29 - y5_6 - y26_47 - y38_49 - y0_4 - y18_52 - y0_22 - y11_22 - y19_35 - y30_35 - y63_69 - y8_44 - y30_44 - y11_49 - y33_46 - y12_23 - y41_59 - y52_59 - y41_68 - y25_51 - y52_68 - y10_62 - y2_58 - y34_38 - y25_69 - y34_47 - y37_43 - y34_56 - y3_50 - y37_52 - y22_63 - y14_59 - y37_61 - y18_20 - y3_68 - y14_68 - y26_33 - y26_42 - y7_38 - y7_47 - y18_47 - y8_21 - y48_57 - y4_5 - y52_54 - y4_14 - y10_48 - y44_50 - y2_44 - y25_46 - y33_59 - y25_55 - y10_66 - y33_68 - y22_40 - y3_45 - y37_47 - y3_54 - y55_64 - y7_24 - y18_24 - y15_37 - y59_62 - y47_69 - y26_46 - y17_65 - y28_65 - y0_3 - y8_16 - y11_12 - y19_25 - y0_21 - y21_62 - y33_36 - y41_49 - y10_43 - y52_58 - y2_39 - y33_63 - y22_26 - y44_63 - y14_22 - y3_31 - y14_31 - y22_44 - y43_67 - y3_40 - y22_53 - y14_49 - y15_23 - y55_59 - y18_19 - y47_55 - y47_64 - y28_60 - y18_37 - y6_41 - y48_56 - y11_16 - y48_65 - y40_61 - y25_27 - y10_38 - y25_45 - y51_57 - y2_52 - y22_30 - y3_26 - y14_26 - y43_62 - y13_58 - y14_35 - y35_67 - y36_59 - y9_42 - y59_61 - y5_53 - y28_55 - y36_68 - y17_64 - y6_27 - y6_36 - y29_38 - y48_51 - y21_34 - y6_45 - y40_47 - y6_54 - y40_56 - y10_15 - y6_63 - y2_20 - y54_58 - y10_33 - y25_40 - y2_47 - y3_12 - y43_48 - y51_61 - y14_21 - y13_53 - y24_53 - y3_30 - y32_66 - y24_62 - y36_54 - y47_54 - y55_67 - y28_50 - y47_63 - y5_57 - y5_66 - y17_68 - y28_68 - y29_33 - y50_65 - y58_69 - y6_40 - y29_42 - y21_38 - y2_6 - y2_24 - y25_26 - y10_37 - y2_33 - y31_69 - y3_7 - y3_16 - y35_48 - y14_25 - y32_61 - y43_61 - y16_53 - y24_66 - y16_62 - y28_36 - y47_49 - y17_45 - y28_45 - y36_58 - y9_41 - y47_58 - y5_52 - y5_61 - y61_69 - y21_42 - y10_14 - y2_10 - y20_64 - y12_60 - y24_34 - y4_65 - y1_41 - y13_43 - y32_56 - y35_43 - y43_56 - y13_52 - y32_65 - y13_61 - y35_61 - y16_57 - y5_20 - y28_31 - y9_27 - y5_47 - y28_49 - y5_56 - y8_67 - y42_69 - y0_63 - y10_18 - y39_54 - y2_14 - y31_50 - y62_65 - y23_46 - y20_59 - y54_61 - y13_20 - y31_68 - y4_51 - y1_36 - y24_38 - y1_45 - y24_47 - y35_47 - y13_56 - y24_56 - y1_63 - y5_24 - y9_31 - y28_44 - y42_55 - y20_27 - y0_67 - y11_67 - y2_9 - y31_45 - y12_41 - y20_54 - y31_54 - y39_67 - y31_63 - y53_60 - y4_55 - y16_20 - y1_31 - y24_33 - y16_29 - y45_65 - y1_40 - y1_49 - y35_51 - y1_58 - y5_19 - y17_21 - y38_53 - y28_30 - y15_69 - y27_34 - y18_65 - y11_44 - y30_57 - y20_22 - y42_59 - y0_53 - y11_53 - y12_18 - y19_66 - y20_31 - y0_62 - y11_62 - y30_66 - y39_44 - y4_41 - y23_54 - y45_60 - y1_35 - y16_33 - y56_69 - y5_14 - y46_52 - y15_46 - y9_12 - y57_61 - y26_55 - y18_51 - y18_69 - y30_34 - y0_30 - y19_43 - y27_56 - y11_48 - y12_13 - y30_61 - y20_26 - y60_62 - y0_57 - y31_35 - y11_66 - y31_44 - y23_49 - y25_68 - y53_59 - y16_19 - y45_55 - y64_68 - y16_28 - y22_62 - y45_64 - y3_58 - y3_67 - y38_43 - y5_18 - y15_50 - y15_59 - y38_61 - y7_55 - y18_55 - y7_64 - y18_64 - y27_42 - y30_47 - y0_43 - y19_56 - y20_21 - y30_56 - y52_53 - y4_13 - y23_26 - y41_62 - y13_18 - y34_50 - y22_57 - y45_59 - y56_59 - y3_53 - y37_55 - y45_68 - y15_27 - y15_36 - y26_36 - y26_45 - y18_41 - y15_63 - y27_28 - y7_59 - y18_59 - y11_20 - y19_33 - y30_33 - y0_47 - y4_8 - y41_57 - y33_53 - y52_66 - y4_26 - y33_62 - y22_34 - y1_11 - y22_43 - y3_39 - y14_39 - y37_41 - y18_27 - y59_65 - y7_36 - y18_36 - y15_49 - y26_49 - y7_45 - y15_58 - y0_15 - y8_28 - y30_37 - y11_33 - y52_61 - y25_44 - y10_55 - y10_64 - y22_29 - y1_6 - y2_60 - y34_40 - y2_69 - y3_34 - y14_34 - y22_47 - y14_43 - y37_45 - y45_58 - y7_13 - y55_62 - y7_22 - y15_35 - y47_67 - y26_44 - y7_40 - y18_49 - y40_46 - y11_19 - y40_55 - y0_28 - y33_34 - y10_41 - y25_39 - y41_65 - y22_24 - y14_20 - y25_66 - y66_67 - y3_56
 Subject to
C1: x0+x1 <=1 
C2: x0+x3-y0_3 <=1 
C3: x0+x4-y0_4 <=1 
C4: x0+x5 <=1 
C5: x0+x7 <=1 
C6: x0+x8 <=1 
C7: x0+x9 <=1 
C8: x0+x10 <=1 
C9: x0+x11 <=1 
C10: x0+x12 <=1 
C11: x0+x14-y0_14 <=1 
C12: x0+x15-y0_15 <=1 
C13: x0+x17 <=1 
C14: x0+x18-y0_18 <=1 
C15: x0+x19 <=1 
C16: x0+x20 <=1 
C17: x0+x21-y0_21 <=1 
C18: x0+x22-y0_22 <=1 
C19: x0+x23-y0_23 <=1 
C20: x0+x25 <=1 
C21: x0+x28-y0_28 <=1 
C22: x0+x29 <=1 
C23: x0+x30-y0_30 <=1 
C24: x0+x31 <=1 
C25: x0+x32-y0_32 <=1 
C26: x0+x38 <=1 
C27: x0+x39 <=1 
C28: x0+x40 <=1 
C29: x0+x41-y0_41 <=1 
C30: x0+x43-y0_43 <=1 
C31: x0+x45 <=1 
C32: x0+x46 <=1 
C33: x0+x47-y0_47 <=1 
C34: x0+x53-y0_53 <=1 
C35: x0+x54 <=1 
C36: x0+x55-y0_55 <=1 
C37: x0+x56 <=1 
C38: x0+x57-y0_57 <=1 
C39: x0+x58 <=1 
C40: x0+x60 <=1 
C41: x0+x62-y0_62 <=1 
C42: x0+x63-y0_63 <=1 
C43: x0+x64-y0_64 <=1 
C44: x0+x65 <=1 
C45: x0+x66 <=1 
C46: x0+x67-y0_67 <=1 
C47: x0+x69-y0_69 <=1 
C48: x1+x3 <=1 
C49: x1+x5-y1_5 <=1 
C50: x1+x6-y1_6 <=1 
C51: x1+x7 <=1 
C52: x1+x10-y1_10 <=1 
C53: x1+x11-y1_11 <=1 
C54: x1+x13 <=1 
C55: x1+x14-y1_14 <=1 
C56: x1+x15-y1_15 <=1 
C57: x1+x16 <=1 
C58: x1+x17 <=1 
C59: x1+x21 <=1 
C60: x1+x22 <=1 
C61: x1+x23-y1_23 <=1 
C62: x1+x26 <=1 
C63: x1+x27 <=1 
C64: x1+x28-y1_28 <=1 
C65: x1+x29-y1_29 <=1 
C66: x1+x30 <=1 
C67: x1+x31-y1_31 <=1 
C68: x1+x32 <=1 
C69: x1+x33-y1_33 <=1 
C70: x1+x35-y1_35 <=1 
C71: x1+x36-y1_36 <=1 
C72: x1+x37 <=1 
C73: x1+x40-y1_40 <=1 
C74: x1+x41-y1_41 <=1 
C75: x1+x43 <=1 
C76: x1+x45-y1_45 <=1 
C77: x1+x46 <=1 
C78: x1+x47-y1_47 <=1 
C79: x1+x49-y1_49 <=1 
C80: x1+x54 <=1 
C81: x1+x57 <=1 
C82: x1+x58-y1_58 <=1 
C83: x1+x59 <=1 
C84: x1+x60 <=1 
C85: x1+x63-y1_63 <=1 
C86: x1+x65-y1_65 <=1 
C87: x1+x66-y1_66 <=1 
C88: x1+x67 <=1 
C89: x1+x69 <=1 
C90: x2+x3 <=1 
C91: x2+x4 <=1 
C92: x2+x5 <=1 
C93: x2+x6-y2_6 <=1 
C94: x2+x8 <=1 
C95: x2+x9-y2_9 <=1 
C96: x2+x10-y2_10 <=1 
C97: x2+x13 <=1 
C98: x2+x14-y2_14 <=1 
C99: x2+x17-y2_17 <=1 
C100: x2+x20-y2_20 <=1 
C101: x2+x21-y2_21 <=1 
C102: x2+x22 <=1 
C103: x2+x24-y2_24 <=1 
C104: x2+x27 <=1 
C105: x2+x30-y2_30 <=1 
C106: x2+x31 <=1 
C107: x2+x32-y2_32 <=1 
C108: x2+x33-y2_33 <=1 
C109: x2+x35 <=1 
C110: x2+x36 <=1 
C111: x2+x37 <=1 
C112: x2+x39-y2_39 <=1 
C113: x2+x40 <=1 
C114: x2+x42 <=1 
C115: x2+x44-y2_44 <=1 
C116: x2+x46 <=1 
C117: x2+x47-y2_47 <=1 
C118: x2+x49 <=1 
C119: x2+x50 <=1 
C120: x2+x51 <=1 
C121: x2+x52-y2_52 <=1 
C122: x2+x53 <=1 
C123: x2+x58-y2_58 <=1 
C124: x2+x59-y2_59 <=1 
C125: x2+x60-y2_60 <=1 
C126: x2+x65 <=1 
C127: x2+x67 <=1 
C128: x2+x68-y2_68 <=1 
C129: x2+x69-y2_69 <=1 
C130: x3+x4-y3_4 <=1 
C131: x3+x5 <=1 
C132: x3+x6-y3_6 <=1 
C133: x3+x7-y3_7 <=1 
C134: x3+x8 <=1 
C135: x3+x9 <=1 
C136: x3+x11 <=1 
C137: x3+x12-y3_12 <=1 
C138: x3+x14-y3_14 <=1 
C139: x3+x15 <=1 
C140: x3+x16-y3_16 <=1 
C141: x3+x17 <=1 
C142: x3+x19 <=1 
C143: x3+x21 <=1 
C144: x3+x24-y3_24 <=1 
C145: x3+x26-y3_26 <=1 
C146: x3+x28-y3_28 <=1 
C147: x3+x29 <=1 
C148: x3+x30-y3_30 <=1 
C149: x3+x31-y3_31 <=1 
C150: x3+x34-y3_34 <=1 
C151: x3+x37-y3_37 <=1 
C152: x3+x38 <=1 
C153: x3+x39-y3_39 <=1 
C154: x3+x40-y3_40 <=1 
C155: x3+x41 <=1 
C156: x3+x42-y3_42 <=1 
C157: x3+x43 <=1 
C158: x3+x44 <=1 
C159: x3+x45-y3_45 <=1 
C160: x3+x46 <=1 
C161: x3+x50-y3_50 <=1 
C162: x3+x52 <=1 
C163: x3+x53-y3_53 <=1 
C164: x3+x54-y3_54 <=1 
C165: x3+x55 <=1 
C166: x3+x56-y3_56 <=1 
C167: x3+x57 <=1 
C168: x3+x58-y3_58 <=1 
C169: x3+x62 <=1 
C170: x3+x63 <=1 
C171: x3+x66 <=1 
C172: x3+x67-y3_67 <=1 
C173: x3+x68-y3_68 <=1 
C174: x4+x5-y4_5 <=1 
C175: x4+x6 <=1 
C176: x4+x8-y4_8 <=1 
C177: x4+x9 <=1 
C178: x4+x13-y4_13 <=1 
C179: x4+x14-y4_14 <=1 
C180: x4+x15 <=1 
C181: x4+x18 <=1 
C182: x4+x20 <=1 
C183: x4+x24-y4_24 <=1 
C184: x4+x26-y4_26 <=1 
C185: x4+x31 <=1 
C186: x4+x32 <=1 
C187: x4+x35 <=1 
C188: x4+x36 <=1 
C189: x4+x39 <=1 
C190: x4+x40 <=1 
C191: x4+x41-y4_41 <=1 
C192: x4+x43-y4_43 <=1 
C193: x4+x44-y4_44 <=1 
C194: x4+x46 <=1 
C195: x4+x47 <=1 
C196: x4+x49 <=1 
C197: x4+x51-y4_51 <=1 
C198: x4+x53 <=1 
C199: x4+x54 <=1 
C200: x4+x55-y4_55 <=1 
C201: x4+x57 <=1 
C202: x4+x58-y4_58 <=1 
C203: x4+x59 <=1 
C204: x4+x60 <=1 
C205: x4+x62 <=1 
C206: x4+x63 <=1 
C207: x4+x65-y4_65 <=1 
C208: x4+x66 <=1 
C209: x4+x67-y4_67 <=1 
C210: x4+x68 <=1 
C211: x4+x69 <=1 
C212: x5+x6-y5_6 <=1 
C213: x5+x7-y5_7 <=1 
C214: x5+x8 <=1 
C215: x5+x9 <=1 
C216: x5+x10 <=1 
C217: x5+x11 <=1 
C218: x5+x14-y5_14 <=1 
C219: x5+x15 <=1 
C220: x5+x16-y5_16 <=1 
C221: x5+x18-y5_18 <=1 
C222: x5+x19-y5_19 <=1 
C223: x5+x20-y5_20 <=1 
C224: x5+x22-y5_22 <=1 
C225: x5+x24-y5_24 <=1 
C226: x5+x26-y5_26 <=1 
C227: x5+x28 <=1 
C228: x5+x30-y5_30 <=1 
C229: x5+x33 <=1 
C230: x5+x34 <=1 
C231: x5+x35-y5_35 <=1 
C232: x5+x36-y5_36 <=1 
C233: x5+x39 <=1 
C234: x5+x42 <=1 
C235: x5+x44 <=1 
C236: x5+x45-y5_45 <=1 
C237: x5+x46-y5_46 <=1 
C238: x5+x47-y5_47 <=1 
C239: x5+x48 <=1 
C240: x5+x49 <=1 
C241: x5+x52-y5_52 <=1 
C242: x5+x53-y5_53 <=1 
C243: x5+x55-y5_55 <=1 
C244: x5+x56-y5_56 <=1 
C245: x5+x57-y5_57 <=1 
C246: x5+x59 <=1 
C247: x5+x60 <=1 
C248: x5+x61-y5_61 <=1 
C249: x5+x63-y5_63 <=1 
C250: x5+x65-y5_65 <=1 
C251: x5+x66-y5_66 <=1 
C252: x5+x68 <=1 
C253: x5+x69-y5_69 <=1 
C254: x6+x8 <=1 
C255: x6+x9 <=1 
C256: x6+x10-y6_10 <=1 
C257: x6+x11 <=1 
C258: x6+x12 <=1 
C259: x6+x14-y6_14 <=1 
C260: x6+x15-y6_15 <=1 
C261: x6+x16 <=1 
C262: x6+x17 <=1 
C263: x6+x18-y6_18 <=1 
C264: x6+x22 <=1 
C265: x6+x27-y6_27 <=1 
C266: x6+x28-y6_28 <=1 
C267: x6+x29 <=1 
C268: x6+x30 <=1 
C269: x6+x33 <=1 
C270: x6+x34-y6_34 <=1 
C271: x6+x35 <=1 
C272: x6+x36-y6_36 <=1 
C273: x6+x37 <=1 
C274: x6+x38 <=1 
C275: x6+x40-y6_40 <=1 
C276: x6+x41-y6_41 <=1 
C277: x6+x43-y6_43 <=1 
C278: x6+x45-y6_45 <=1 
C279: x6+x46 <=1 
C280: x6+x49 <=1 
C281: x6+x50 <=1 
C282: x6+x51 <=1 
C283: x6+x52-y6_52 <=1 
C284: x6+x54-y6_54 <=1 
C285: x6+x57 <=1 
C286: x6+x61-y6_61 <=1 
C287: x6+x63-y6_63 <=1 
C288: x6+x64 <=1 
C289: x6+x68 <=1 
C290: x6+x69 <=1 
C291: x7+x9 <=1 
C292: x7+x13-y7_13 <=1 
C293: x7+x14 <=1 
C294: x7+x15 <=1 
C295: x7+x17-y7_17 <=1 
C296: x7+x19 <=1 
C297: x7+x20 <=1 
C298: x7+x21 <=1 
C299: x7+x22-y7_22 <=1 
C300: x7+x24-y7_24 <=1 
C301: x7+x25 <=1 
C302: x7+x26-y7_26 <=1 
C303: x7+x28 <=1 
C304: x7+x30 <=1 
C305: x7+x31 <=1 
C306: x7+x33 <=1 
C307: x7+x35-y7_35 <=1 
C308: x7+x36-y7_36 <=1 
C309: x7+x37 <=1 
C310: x7+x38-y7_38 <=1 
C311: x7+x40-y7_40 <=1 
C312: x7+x43 <=1 
C313: x7+x45-y7_45 <=1 
C314: x7+x46 <=1 
C315: x7+x47-y7_47 <=1 
C316: x7+x48 <=1 
C317: x7+x51 <=1 
C318: x7+x54 <=1 
C319: x7+x55-y7_55 <=1 
C320: x7+x56 <=1 
C321: x7+x59-y7_59 <=1 
C322: x7+x60 <=1 
C323: x7+x62 <=1 
C324: x7+x63-y7_63 <=1 
C325: x7+x64-y7_64 <=1 
C326: x7+x65 <=1 
C327: x7+x67 <=1 
C328: x8+x9-y8_9 <=1 
C329: x8+x10 <=1 
C330: x8+x13-y8_13 <=1 
C331: x8+x16-y8_16 <=1 
C332: x8+x21-y8_21 <=1 
C333: x8+x25 <=1 
C334: x8+x26 <=1 
C335: x8+x27 <=1 
C336: x8+x28-y8_28 <=1 
C337: x8+x33 <=1 
C338: x8+x34 <=1 
C339: x8+x35 <=1 
C340: x8+x37 <=1 
C341: x8+x38 <=1 
C342: x8+x39 <=1 
C343: x8+x40-y8_40 <=1 
C344: x8+x41 <=1 
C345: x8+x42 <=1 
C346: x8+x43 <=1 
C347: x8+x44-y8_44 <=1 
C348: x8+x47 <=1 
C349: x8+x49-y8_49 <=1 
C350: x8+x50-y8_50 <=1 
C351: x8+x51-y8_51 <=1 
C352: x8+x52 <=1 
C353: x8+x55 <=1 
C354: x8+x58 <=1 
C355: x8+x59-y8_59 <=1 
C356: x8+x60 <=1 
C357: x8+x63 <=1 
C358: x8+x65 <=1 
C359: x8+x66 <=1 
C360: x8+x67-y8_67 <=1 
C361: x8+x69 <=1 
C362: x9+x10-y9_10 <=1 
C363: x9+x12-y9_12 <=1 
C364: x9+x14 <=1 
C365: x9+x15-y9_15 <=1 
C366: x9+x18 <=1 
C367: x9+x21 <=1 
C368: x9+x23 <=1 
C369: x9+x24-y9_24 <=1 
C370: x9+x27-y9_27 <=1 
C371: x9+x28 <=1 
C372: x9+x29 <=1 
C373: x9+x30 <=1 
C374: x9+x31-y9_31 <=1 
C375: x9+x34-y9_34 <=1 
C376: x9+x37 <=1 
C377: x9+x39 <=1 
C378: x9+x41-y9_41 <=1 
C379: x9+x42-y9_42 <=1 
C380: x9+x43-y9_43 <=1 
C381: x9+x44 <=1 
C382: x9+x47 <=1 
C383: x9+x48-y9_48 <=1 
C384: x9+x49 <=1 
C385: x9+x50 <=1 
C386: x9+x53-y9_53 <=1 
C387: x9+x54 <=1 
C388: x9+x57 <=1 
C389: x9+x58 <=1 
C390: x9+x59 <=1 
C391: x9+x60 <=1 
C392: x9+x61 <=1 
C393: x9+x65 <=1 
C394: x9+x66-y9_66 <=1 
C395: x9+x67 <=1 
C396: x9+x69 <=1 
C397: x10+x11-y10_11 <=1 
C398: x10+x12 <=1 
C399: x10+x13 <=1 
C400: x10+x14-y10_14 <=1 
C401: x10+x15-y10_15 <=1 
C402: x10+x16-y10_16 <=1 
C403: x10+x18-y10_18 <=1 
C404: x10+x20 <=1 
C405: x10+x21-y10_21 <=1 
C406: x10+x22 <=1 
C407: x10+x25-y10_25 <=1 
C408: x10+x26-y10_26 <=1 
C409: x10+x27 <=1 
C410: x10+x29 <=1 
C411: x10+x30 <=1 
C412: x10+x31-y10_31 <=1 
C413: x10+x32 <=1 
C414: x10+x33-y10_33 <=1 
C415: x10+x34 <=1 
C416: x10+x36 <=1 
C417: x10+x37-y10_37 <=1 
C418: x10+x38-y10_38 <=1 
C419: x10+x39 <=1 
C420: x10+x40-y10_40 <=1 
C421: x10+x41-y10_41 <=1 
C422: x10+x43-y10_43 <=1 
C423: x10+x44-y10_44 <=1 
C424: x10+x45-y10_45 <=1 
C425: x10+x46 <=1 
C426: x10+x48-y10_48 <=1 
C427: x10+x49 <=1 
C428: x10+x53 <=1 
C429: x10+x55-y10_55 <=1 
C430: x10+x56 <=1 
C431: x10+x57 <=1 
C432: x10+x62-y10_62 <=1 
C433: x10+x63 <=1 
C434: x10+x64-y10_64 <=1 
C435: x10+x65 <=1 
C436: x10+x66-y10_66 <=1 
C437: x10+x67 <=1 
C438: x10+x68 <=1 
C439: x11+x12-y11_12 <=1 
C440: x11+x16-y11_16 <=1 
C441: x11+x18 <=1 
C442: x11+x19-y11_19 <=1 
C443: x11+x20-y11_20 <=1 
C444: x11+x22-y11_22 <=1 
C445: x11+x23 <=1 
C446: x11+x24 <=1 
C447: x11+x25 <=1 
C448: x11+x31 <=1 
C449: x11+x32-y11_32 <=1 
C450: x11+x33-y11_33 <=1 
C451: x11+x34 <=1 
C452: x11+x44-y11_44 <=1 
C453: x11+x45 <=1 
C454: x11+x47 <=1 
C455: x11+x48-y11_48 <=1 
C456: x11+x49-y11_49 <=1 
C457: x11+x51-y11_51 <=1 
C458: x11+x53-y11_53 <=1 
C459: x11+x55 <=1 
C460: x11+x57 <=1 
C461: x11+x61 <=1 
C462: x11+x62-y11_62 <=1 
C463: x11+x64-y11_64 <=1 
C464: x11+x65 <=1 
C465: x11+x66-y11_66 <=1 
C466: x11+x67-y11_67 <=1 
C467: x11+x68 <=1 
C468: x11+x69-y11_69 <=1 
C469: x12+x13-y12_13 <=1 
C470: x12+x15-y12_15 <=1 
C471: x12+x17 <=1 
C472: x12+x18-y12_18 <=1 
C473: x12+x19-y12_19 <=1 
C474: x12+x21 <=1 
C475: x12+x23-y12_23 <=1 
C476: x12+x24 <=1 
C477: x12+x28-y12_28 <=1 
C478: x12+x29-y12_29 <=1 
C479: x12+x30 <=1 
C480: x12+x31 <=1 
C481: x12+x32 <=1 
C482: x12+x35 <=1 
C483: x12+x36 <=1 
C484: x12+x37-y12_37 <=1 
C485: x12+x38-y12_38 <=1 
C486: x12+x39 <=1 
C487: x12+x40 <=1 
C488: x12+x41-y12_41 <=1 
C489: x12+x42 <=1 
C490: x12+x43-y12_43 <=1 
C491: x12+x44-y12_44 <=1 
C492: x12+x45 <=1 
C493: x12+x46 <=1 
C494: x12+x47 <=1 
C495: x12+x48 <=1 
C496: x12+x49 <=1 
C497: x12+x51 <=1 
C498: x12+x53 <=1 
C499: x12+x54 <=1 
C500: x12+x56-y12_56 <=1 
C501: x12+x57-y12_57 <=1 
C502: x12+x59 <=1 
C503: x12+x60-y12_60 <=1 
C504: x12+x61 <=1 
C505: x12+x65 <=1 
C506: x12+x66-y12_66 <=1 
C507: x12+x67 <=1 
C508: x12+x68 <=1 
C509: x13+x16 <=1 
C510: x13+x18-y13_18 <=1 
C511: x13+x19 <=1 
C512: x13+x20-y13_20 <=1 
C513: x13+x21 <=1 
C514: x13+x22 <=1 
C515: x13+x24 <=1 
C516: x13+x26-y13_26 <=1 
C517: x13+x27 <=1 
C518: x13+x30-y13_30 <=1 
C519: x13+x31-y13_31 <=1 
C520: x13+x32 <=1 
C521: x13+x34 <=1 
C522: x13+x35-y13_35 <=1 
C523: x13+x37 <=1 
C524: x13+x38 <=1 
C525: x13+x39 <=1 
C526: x13+x43-y13_43 <=1 
C527: x13+x45-y13_45 <=1 
C528: x13+x46-y13_46 <=1 
C529: x13+x49-y13_49 <=1 
C530: x13+x50 <=1 
C531: x13+x51 <=1 
C532: x13+x52-y13_52 <=1 
C533: x13+x53-y13_53 <=1 
C534: x13+x54-y13_54 <=1 
C535: x13+x56-y13_56 <=1 
C536: x13+x57 <=1 
C537: x13+x58-y13_58 <=1 
C538: x13+x61-y13_61 <=1 
C539: x13+x62 <=1 
C540: x13+x63-y13_63 <=1 
C541: x13+x65-y13_65 <=1 
C542: x13+x68 <=1 
C543: x13+x69 <=1 
C544: x14+x15 <=1 
C545: x14+x16 <=1 
C546: x14+x20-y14_20 <=1 
C547: x14+x21-y14_21 <=1 
C548: x14+x22-y14_22 <=1 
C549: x14+x24 <=1 
C550: x14+x25-y14_25 <=1 
C551: x14+x26-y14_26 <=1 
C552: x14+x27 <=1 
C553: x14+x28 <=1 
C554: x14+x30 <=1 
C555: x14+x31-y14_31 <=1 
C556: x14+x32-y14_32 <=1 
C557: x14+x34-y14_34 <=1 
C558: x14+x35-y14_35 <=1 
C559: x14+x38 <=1 
C560: x14+x39-y14_39 <=1 
C561: x14+x41 <=1 
C562: x14+x42-y14_42 <=1 
C563: x14+x43-y14_43 <=1 
C564: x14+x45 <=1 
C565: x14+x49-y14_49 <=1 
C566: x14+x58 <=1 
C567: x14+x59-y14_59 <=1 
C568: x14+x60-y14_60 <=1 
C569: x14+x65 <=1 
C570: x14+x67 <=1 
C571: x14+x68-y14_68 <=1 
C572: x15+x16 <=1 
C573: x15+x19 <=1 
C574: x15+x23-y15_23 <=1 
C575: x15+x24 <=1 
C576: x15+x25-y15_25 <=1 
C577: x15+x27-y15_27 <=1 
C578: x15+x29-y15_29 <=1 
C579: x15+x31 <=1 
C580: x15+x32 <=1 
C581: x15+x35-y15_35 <=1 
C582: x15+x36-y15_36 <=1 
C583: x15+x37-y15_37 <=1 
C584: x15+x38 <=1 
C585: x15+x39-y15_39 <=1 
C586: x15+x40 <=1 
C587: x15+x41 <=1 
C588: x15+x43-y15_43 <=1 
C589: x15+x46-y15_46 <=1 
C590: x15+x47 <=1 
C591: x15+x48 <=1 
C592: x15+x49-y15_49 <=1 
C593: x15+x50-y15_50 <=1 
C594: x15+x52-y15_52 <=1 
C595: x15+x55 <=1 
C596: x15+x57 <=1 
C597: x15+x58-y15_58 <=1 
C598: x15+x59-y15_59 <=1 
C599: x15+x60 <=1 
C600: x15+x61 <=1 
C601: x15+x62 <=1 
C602: x15+x63-y15_63 <=1 
C603: x15+x69-y15_69 <=1 
C604: x16+x17-y16_17 <=1 
C605: x16+x18-y16_18 <=1 
C606: x16+x19-y16_19 <=1 
C607: x16+x20-y16_20 <=1 
C608: x16+x21 <=1 
C609: x16+x22-y16_22 <=1 
C610: x16+x25 <=1 
C611: x16+x26 <=1 
C612: x16+x27 <=1 
C613: x16+x28-y16_28 <=1 
C614: x16+x29-y16_29 <=1 
C615: x16+x30 <=1 
C616: x16+x31 <=1 
C617: x16+x33-y16_33 <=1 
C618: x16+x34 <=1 
C619: x16+x36-y16_36 <=1 
C620: x16+x37 <=1 
C621: x16+x38 <=1 
C622: x16+x39 <=1 
C623: x16+x40 <=1 
C624: x16+x41 <=1 
C625: x16+x42 <=1 
C626: x16+x46-y16_46 <=1 
C627: x16+x47 <=1 
C628: x16+x49-y16_49 <=1 
C629: x16+x50-y16_50 <=1 
C630: x16+x51-y16_51 <=1 
C631: x16+x52 <=1 
C632: x16+x53-y16_53 <=1 
C633: x16+x56 <=1 
C634: x16+x57-y16_57 <=1 
C635: x16+x58 <=1 
C636: x16+x59 <=1 
C637: x16+x60 <=1 
C638: x16+x61 <=1 
C639: x16+x62-y16_62 <=1 
C640: x16+x64 <=1 
C641: x16+x67 <=1 
C642: x16+x68 <=1 
C643: x16+x69-y16_69 <=1 
C644: x17+x18 <=1 
C645: x17+x20-y17_20 <=1 
C646: x17+x21-y17_21 <=1 
C647: x17+x23-y17_23 <=1 
C648: x17+x24 <=1 
C649: x17+x27 <=1 
C650: x17+x28-y17_28 <=1 
C651: x17+x29-y17_29 <=1 
C652: x17+x34 <=1 
C653: x17+x43-y17_43 <=1 
C654: x17+x44-y17_44 <=1 
C655: x17+x45-y17_45 <=1 
C656: x17+x46 <=1 
C657: x17+x47 <=1 
C658: x17+x48 <=1 
C659: x17+x50 <=1 
C660: x17+x51 <=1 
C661: x17+x53-y17_53 <=1 
C662: x17+x54 <=1 
C663: x17+x56-y17_56 <=1 
C664: x17+x57 <=1 
C665: x17+x58-y17_58 <=1 
C666: x17+x59 <=1 
C667: x17+x63 <=1 
C668: x17+x64-y17_64 <=1 
C669: x17+x65-y17_65 <=1 
C670: x17+x67 <=1 
C671: x17+x68-y17_68 <=1 
C672: x18+x19-y18_19 <=1 
C673: x18+x20-y18_20 <=1 
C674: x18+x24-y18_24 <=1 
C675: x18+x25 <=1 
C676: x18+x26-y18_26 <=1 
C677: x18+x27-y18_27 <=1 
C678: x18+x28 <=1 
C679: x18+x30-y18_30 <=1 
C680: x18+x32 <=1 
C681: x18+x33 <=1 
C682: x18+x34 <=1 
C683: x18+x35 <=1 
C684: x18+x36-y18_36 <=1 
C685: x18+x37-y18_37 <=1 
C686: x18+x39-y18_39 <=1 
C687: x18+x41-y18_41 <=1 
C688: x18+x42 <=1 
C689: x18+x43 <=1 
C690: x18+x45 <=1 
C691: x18+x46 <=1 
C692: x18+x47-y18_47 <=1 
C693: x18+x48 <=1 
C694: x18+x49-y18_49 <=1 
C695: x18+x51-y18_51 <=1 
C696: x18+x52-y18_52 <=1 
C697: x18+x53 <=1 
C698: x18+x55-y18_55 <=1 
C699: x18+x57-y18_57 <=1 
C700: x18+x59-y18_59 <=1 
C701: x18+x60 <=1 
C702: x18+x62 <=1 
C703: x18+x64-y18_64 <=1 
C704: x18+x65-y18_65 <=1 
C705: x18+x66-y18_66 <=1 
C706: x18+x69-y18_69 <=1 
C707: x19+x20 <=1 
C708: x19+x21 <=1 
C709: x19+x24 <=1 
C710: x19+x25-y19_25 <=1 
C711: x19+x27-y19_27 <=1 
C712: x19+x28 <=1 
C713: x19+x29 <=1 
C714: x19+x30 <=1 
C715: x19+x31-y19_31 <=1 
C716: x19+x32 <=1 
C717: x19+x33-y19_33 <=1 
C718: x19+x35-y19_35 <=1 
C719: x19+x36-y19_36 <=1 
C720: x19+x37 <=1 
C721: x19+x39 <=1 
C722: x19+x40-y19_40 <=1 
C723: x19+x41-y19_41 <=1 
C724: x19+x42 <=1 
C725: x19+x43-y19_43 <=1 
C726: x19+x45-y19_45 <=1 
C727: x19+x46-y19_46 <=1 
C728: x19+x47 <=1 
C729: x19+x48 <=1 
C730: x19+x49 <=1 
C731: x19+x50 <=1 
C732: x19+x53 <=1 
C733: x19+x54-y19_54 <=1 
C734: x19+x55-y19_55 <=1 
C735: x19+x56-y19_56 <=1 
C736: x19+x57 <=1 
C737: x19+x66-y19_66 <=1 
C738: x19+x68-y19_68 <=1 
C739: x20+x21-y20_21 <=1 
C740: x20+x22-y20_22 <=1 
C741: x20+x24 <=1 
C742: x20+x26-y20_26 <=1 
C743: x20+x27-y20_27 <=1 
C744: x20+x28-y20_28 <=1 
C745: x20+x29-y20_29 <=1 
C746: x20+x31-y20_31 <=1 
C747: x20+x32-y20_32 <=1 
C748: x20+x33-y20_33 <=1 
C749: x20+x35 <=1 
C750: x20+x36 <=1 
C751: x20+x38 <=1 
C752: x20+x46 <=1 
C753: x20+x47-y20_47 <=1 
C754: x20+x49 <=1 
C755: x20+x51-y20_51 <=1 
C756: x20+x52-y20_52 <=1 
C757: x20+x53 <=1 
C758: x20+x54-y20_54 <=1 
C759: x20+x55 <=1 
C760: x20+x58 <=1 
C761: x20+x59-y20_59 <=1 
C762: x20+x60 <=1 
C763: x20+x61 <=1 
C764: x20+x64-y20_64 <=1 
C765: x20+x66-y20_66 <=1 
C766: x20+x67 <=1 
C767: x20+x68 <=1 
C768: x21+x23 <=1 
C769: x21+x24 <=1 
C770: x21+x25 <=1 
C771: x21+x27-y21_27 <=1 
C772: x21+x30-y21_30 <=1 
C773: x21+x31 <=1 
C774: x21+x33 <=1 
C775: x21+x34-y21_34 <=1 
C776: x21+x35-y21_35 <=1 
C777: x21+x36 <=1 
C778: x21+x37 <=1 
C779: x21+x38-y21_38 <=1 
C780: x21+x39 <=1 
C781: x21+x40-y21_40 <=1 
C782: x21+x41-y21_41 <=1 
C783: x21+x42-y21_42 <=1 
C784: x21+x43 <=1 
C785: x21+x44 <=1 
C786: x21+x45 <=1 
C787: x21+x47 <=1 
C788: x21+x50 <=1 
C789: x21+x54-y21_54 <=1 
C790: x21+x56 <=1 
C791: x21+x57 <=1 
C792: x21+x58 <=1 
C793: x21+x61 <=1 
C794: x21+x62-y21_62 <=1 
C795: x21+x64 <=1 
C796: x21+x66 <=1 
C797: x22+x24-y22_24 <=1 
C798: x22+x26-y22_26 <=1 
C799: x22+x27 <=1 
C800: x22+x29-y22_29 <=1 
C801: x22+x30-y22_30 <=1 
C802: x22+x33 <=1 
C803: x22+x34-y22_34 <=1 
C804: x22+x35 <=1 
C805: x22+x37-y22_37 <=1 
C806: x22+x40-y22_40 <=1 
C807: x22+x41 <=1 
C808: x22+x43-y22_43 <=1 
C809: x22+x44-y22_44 <=1 
C810: x22+x45 <=1 
C811: x22+x46-y22_46 <=1 
C812: x22+x47-y22_47 <=1 
C813: x22+x53-y22_53 <=1 
C814: x22+x57-y22_57 <=1 
C815: x22+x58 <=1 
C816: x22+x59-y22_59 <=1 
C817: x22+x60 <=1 
C818: x22+x62-y22_62 <=1 
C819: x22+x63-y22_63 <=1 
C820: x22+x67 <=1 
C821: x22+x68-y22_68 <=1 
C822: x23+x24 <=1 
C823: x23+x26-y23_26 <=1 
C824: x23+x31 <=1 
C825: x23+x33-y23_33 <=1 
C826: x23+x34-y23_34 <=1 
C827: x23+x35 <=1 
C828: x23+x37-y23_37 <=1 
C829: x23+x38 <=1 
C830: x23+x39 <=1 
C831: x23+x43-y23_43 <=1 
C832: x23+x45 <=1 
C833: x23+x46-y23_46 <=1 
C834: x23+x47-y23_47 <=1 
C835: x23+x49-y23_49 <=1 
C836: x23+x50 <=1 
C837: x23+x52-y23_52 <=1 
C838: x23+x53-y23_53 <=1 
C839: x23+x54-y23_54 <=1 
C840: x23+x56 <=1 
C841: x23+x57-y23_57 <=1 
C842: x23+x58 <=1 
C843: x23+x59 <=1 
C844: x23+x60 <=1 
C845: x23+x65 <=1 
C846: x23+x66-y23_66 <=1 
C847: x23+x69 <=1 
C848: x24+x25-y24_25 <=1 
C849: x24+x26 <=1 
C850: x24+x30 <=1 
C851: x24+x31 <=1 
C852: x24+x32 <=1 
C853: x24+x33-y24_33 <=1 
C854: x24+x34-y24_34 <=1 
C855: x24+x36-y24_36 <=1 
C856: x24+x38-y24_38 <=1 
C857: x24+x41 <=1 
C858: x24+x42 <=1 
C859: x24+x43 <=1 
C860: x24+x44 <=1 
C861: x24+x45 <=1 
C862: x24+x47-y24_47 <=1 
C863: x24+x48 <=1 
C864: x24+x51 <=1 
C865: x24+x53-y24_53 <=1 
C866: x24+x54 <=1 
C867: x24+x55-y24_55 <=1 
C868: x24+x56-y24_56 <=1 
C869: x24+x57 <=1 
C870: x24+x58 <=1 
C871: x24+x59 <=1 
C872: x24+x61 <=1 
C873: x24+x62-y24_62 <=1 
C874: x24+x63 <=1 
C875: x24+x64 <=1 
C876: x24+x66-y24_66 <=1 
C877: x24+x69-y24_69 <=1 
C878: x25+x26-y25_26 <=1 
C879: x25+x27-y25_27 <=1 
C880: x25+x30 <=1 
C881: x25+x31 <=1 
C882: x25+x34-y25_34 <=1 
C883: x25+x37 <=1 
C884: x25+x39-y25_39 <=1 
C885: x25+x40-y25_40 <=1 
C886: x25+x41 <=1 
C887: x25+x42 <=1 
C888: x25+x44-y25_44 <=1 
C889: x25+x45-y25_45 <=1 
C890: x25+x46-y25_46 <=1 
C891: x25+x47-y25_47 <=1 
C892: x25+x49 <=1 
C893: x25+x51-y25_51 <=1 
C894: x25+x53 <=1 
C895: x25+x55-y25_55 <=1 
C896: x25+x56-y25_56 <=1 
C897: x25+x59 <=1 
C898: x25+x61 <=1 
C899: x25+x63 <=1 
C900: x25+x65 <=1 
C901: x25+x66-y25_66 <=1 
C902: x25+x68-y25_68 <=1 
C903: x25+x69-y25_69 <=1 
C904: x26+x29 <=1 
C905: x26+x31 <=1 
C906: x26+x33-y26_33 <=1 
C907: x26+x34-y26_34 <=1 
C908: x26+x35 <=1 
C909: x26+x36-y26_36 <=1 
C910: x26+x37 <=1 
C911: x26+x39-y26_39 <=1 
C912: x26+x40 <=1 
C913: x26+x41 <=1 
C914: x26+x42-y26_42 <=1 
C915: x26+x43-y26_43 <=1 
C916: x26+x44-y26_44 <=1 
C917: x26+x45-y26_45 <=1 
C918: x26+x46-y26_46 <=1 
C919: x26+x47-y26_47 <=1 
C920: x26+x48-y26_48 <=1 
C921: x26+x49-y26_49 <=1 
C922: x26+x50 <=1 
C923: x26+x51 <=1 
C924: x26+x53 <=1 
C925: x26+x54 <=1 
C926: x26+x55-y26_55 <=1 
C927: x26+x59 <=1 
C928: x26+x61-y26_61 <=1 
C929: x26+x63 <=1 
C930: x26+x66 <=1 
C931: x27+x28-y27_28 <=1 
C932: x27+x29 <=1 
C933: x27+x30 <=1 
C934: x27+x31-y27_31 <=1 
C935: x27+x34-y27_34 <=1 
C936: x27+x35 <=1 
C937: x27+x37 <=1 
C938: x27+x40-y27_40 <=1 
C939: x27+x42-y27_42 <=1 
C940: x27+x44-y27_44 <=1 
C941: x27+x45 <=1 
C942: x27+x47 <=1 
C943: x27+x50 <=1 
C944: x27+x51 <=1 
C945: x27+x53 <=1 
C946: x27+x54 <=1 
C947: x27+x55 <=1 
C948: x27+x56-y27_56 <=1 
C949: x27+x59-y27_59 <=1 
C950: x27+x60 <=1 
C951: x27+x63-y27_63 <=1 
C952: x27+x68-y27_68 <=1 
C953: x27+x69-y27_69 <=1 
C954: x28+x30-y28_30 <=1 
C955: x28+x31-y28_31 <=1 
C956: x28+x33 <=1 
C957: x28+x34 <=1 
C958: x28+x36-y28_36 <=1 
C959: x28+x37 <=1 
C960: x28+x38-y28_38 <=1 
C961: x28+x41 <=1 
C962: x28+x43 <=1 
C963: x28+x44-y28_44 <=1 
C964: x28+x45-y28_45 <=1 
C965: x28+x46 <=1 
C966: x28+x47-y28_47 <=1 
C967: x28+x49-y28_49 <=1 
C968: x28+x50-y28_50 <=1 
C969: x28+x51 <=1 
C970: x28+x53 <=1 
C971: x28+x55-y28_55 <=1 
C972: x28+x56 <=1 
C973: x28+x58-y28_58 <=1 
C974: x28+x60-y28_60 <=1 
C975: x28+x62-y28_62 <=1 
C976: x28+x65-y28_65 <=1 
C977: x28+x66 <=1 
C978: x28+x67 <=1 
C979: x28+x68-y28_68 <=1 
C980: x29+x31 <=1 
C981: x29+x32 <=1 
C982: x29+x33-y29_33 <=1 
C983: x29+x35-y29_35 <=1 
C984: x29+x36-y29_36 <=1 
C985: x29+x38-y29_38 <=1 
C986: x29+x40 <=1 
C987: x29+x41 <=1 
C988: x29+x42-y29_42 <=1 
C989: x29+x44 <=1 
C990: x29+x45 <=1 
C991: x29+x46 <=1 
C992: x29+x47 <=1 
C993: x29+x50 <=1 
C994: x29+x51 <=1 
C995: x29+x54 <=1 
C996: x29+x57 <=1 
C997: x29+x60 <=1 
C998: x29+x63-y29_63 <=1 
C999: x30+x32 <=1 
C1000: x30+x33-y30_33 <=1 
C1001: x30+x34-y30_34 <=1 
C1002: x30+x35-y30_35 <=1 
C1003: x30+x36 <=1 
C1004: x30+x37-y30_37 <=1 
C1005: x30+x38 <=1 
C1006: x30+x39 <=1 
C1007: x30+x40-y30_40 <=1 
C1008: x30+x41-y30_41 <=1 
C1009: x30+x44-y30_44 <=1 
C1010: x30+x46 <=1 
C1011: x30+x47-y30_47 <=1 
C1012: x30+x48 <=1 
C1013: x30+x49-y30_49 <=1 
C1014: x30+x50 <=1 
C1015: x30+x51 <=1 
C1016: x30+x52 <=1 
C1017: x30+x53 <=1 
C1018: x30+x56-y30_56 <=1 
C1019: x30+x57-y30_57 <=1 
C1020: x30+x59 <=1 
C1021: x30+x60-y30_60 <=1 
C1022: x30+x61-y30_61 <=1 
C1023: x30+x62 <=1 
C1024: x30+x63-y30_63 <=1 
C1025: x30+x64-y30_64 <=1 
C1026: x30+x65 <=1 
C1027: x30+x66-y30_66 <=1 
C1028: x30+x67 <=1 
C1029: x30+x68-y30_68 <=1 
C1030: x30+x69 <=1 
C1031: x31+x33 <=1 
C1032: x31+x34 <=1 
C1033: x31+x35-y31_35 <=1 
C1034: x31+x36 <=1 
C1035: x31+x37-y31_37 <=1 
C1036: x31+x43-y31_43 <=1 
C1037: x31+x44-y31_44 <=1 
C1038: x31+x45-y31_45 <=1 
C1039: x31+x47-y31_47 <=1 
C1040: x31+x48 <=1 
C1041: x31+x50-y31_50 <=1 
C1042: x31+x51-y31_51 <=1 
C1043: x31+x52-y31_52 <=1 
C1044: x31+x53 <=1 
C1045: x31+x54-y31_54 <=1 
C1046: x31+x55 <=1 
C1047: x31+x56 <=1 
C1048: x31+x58 <=1 
C1049: x31+x60 <=1 
C1050: x31+x62 <=1 
C1051: x31+x63-y31_63 <=1 
C1052: x31+x65-y31_65 <=1 
C1053: x31+x68-y31_68 <=1 
C1054: x31+x69-y31_69 <=1 
C1055: x32+x39-y32_39 <=1 
C1056: x32+x40 <=1 
C1057: x32+x42 <=1 
C1058: x32+x43 <=1 
C1059: x32+x45-y32_45 <=1 
C1060: x32+x48 <=1 
C1061: x32+x51 <=1 
C1062: x32+x52 <=1 
C1063: x32+x55 <=1 
C1064: x32+x56-y32_56 <=1 
C1065: x32+x58 <=1 
C1066: x32+x59 <=1 
C1067: x32+x61-y32_61 <=1 
C1068: x32+x62 <=1 
C1069: x32+x64-y32_64 <=1 
C1070: x32+x65-y32_65 <=1 
C1071: x32+x66-y32_66 <=1 
C1072: x32+x68 <=1 
C1073: x32+x69 <=1 
C1074: x33+x34-y33_34 <=1 
C1075: x33+x35 <=1 
C1076: x33+x36-y33_36 <=1 
C1077: x33+x38 <=1 
C1078: x33+x39 <=1 
C1079: x33+x40 <=1 
C1080: x33+x41 <=1 
C1081: x33+x42-y33_42 <=1 
C1082: x33+x45 <=1 
C1083: x33+x46-y33_46 <=1 
C1084: x33+x47 <=1 
C1085: x33+x48 <=1 
C1086: x33+x50 <=1 
C1087: x33+x51 <=1 
C1088: x33+x53-y33_53 <=1 
C1089: x33+x57 <=1 
C1090: x33+x59-y33_59 <=1 
C1091: x33+x60 <=1 
C1092: x33+x61 <=1 
C1093: x33+x62-y33_62 <=1 
C1094: x33+x63-y33_63 <=1 
C1095: x33+x66 <=1 
C1096: x33+x67 <=1 
C1097: x33+x68-y33_68 <=1 
C1098: x34+x37 <=1 
C1099: x34+x38-y34_38 <=1 
C1100: x34+x40-y34_40 <=1 
C1101: x34+x41 <=1 
C1102: x34+x42 <=1 
C1103: x34+x43 <=1 
C1104: x34+x46 <=1 
C1105: x34+x47-y34_47 <=1 
C1106: x34+x49 <=1 
C1107: x34+x50-y34_50 <=1 
C1108: x34+x52 <=1 
C1109: x34+x53-y34_53 <=1 
C1110: x34+x56-y34_56 <=1 
C1111: x34+x57 <=1 
C1112: x34+x61 <=1 
C1113: x34+x63 <=1 
C1114: x34+x67-y34_67 <=1 
C1115: x34+x68 <=1 
C1116: x34+x69 <=1 
C1117: x35+x40-y35_40 <=1 
C1118: x35+x42 <=1 
C1119: x35+x43-y35_43 <=1 
C1120: x35+x44 <=1 
C1121: x35+x46-y35_46 <=1 
C1122: x35+x47-y35_47 <=1 
C1123: x35+x48-y35_48 <=1 
C1124: x35+x49 <=1 
C1125: x35+x50 <=1 
C1126: x35+x51-y35_51 <=1 
C1127: x35+x58-y35_58 <=1 
C1128: x35+x59-y35_59 <=1 
C1129: x35+x61-y35_61 <=1 
C1130: x35+x62 <=1 
C1131: x35+x65-y35_65 <=1 
C1132: x35+x66 <=1 
C1133: x35+x67-y35_67 <=1 
C1134: x35+x68-y35_68 <=1 
C1135: x35+x69 <=1 
C1136: x36+x38 <=1 
C1137: x36+x39 <=1 
C1138: x36+x41 <=1 
C1139: x36+x47 <=1 
C1140: x36+x51 <=1 
C1141: x36+x52-y36_52 <=1 
C1142: x36+x54-y36_54 <=1 
C1143: x36+x55 <=1 
C1144: x36+x56-y36_56 <=1 
C1145: x36+x58-y36_58 <=1 
C1146: x36+x59-y36_59 <=1 
C1147: x36+x60 <=1 
C1148: x36+x61-y36_61 <=1 
C1149: x36+x64 <=1 
C1150: x36+x66 <=1 
C1151: x36+x67 <=1 
C1152: x36+x68-y36_68 <=1 
C1153: x36+x69 <=1 
C1154: x37+x39-y37_39 <=1 
C1155: x37+x41-y37_41 <=1 
C1156: x37+x43-y37_43 <=1 
C1157: x37+x44-y37_44 <=1 
C1158: x37+x45-y37_45 <=1 
C1159: x37+x47-y37_47 <=1 
C1160: x37+x48-y37_48 <=1 
C1161: x37+x52-y37_52 <=1 
C1162: x37+x53 <=1 
C1163: x37+x54 <=1 
C1164: x37+x55-y37_55 <=1 
C1165: x37+x56 <=1 
C1166: x37+x57 <=1 
C1167: x37+x58-y37_58 <=1 
C1168: x37+x61-y37_61 <=1 
C1169: x37+x62 <=1 
C1170: x37+x63-y37_63 <=1 
C1171: x37+x64 <=1 
C1172: x37+x66-y37_66 <=1 
C1173: x37+x69 <=1 
C1174: x38+x41-y38_41 <=1 
C1175: x38+x43-y38_43 <=1 
C1176: x38+x46-y38_46 <=1 
C1177: x38+x47 <=1 
C1178: x38+x48 <=1 
C1179: x38+x49-y38_49 <=1 
C1180: x38+x52 <=1 
C1181: x38+x53-y38_53 <=1 
C1182: x38+x55 <=1 
C1183: x38+x58 <=1 
C1184: x38+x59-y38_59 <=1 
C1185: x38+x61-y38_61 <=1 
C1186: x38+x65 <=1 
C1187: x38+x66 <=1 
C1188: x38+x67 <=1 
C1189: x38+x68-y38_68 <=1 
C1190: x38+x69-y38_69 <=1 
C1191: x39+x40 <=1 
C1192: x39+x42-y39_42 <=1 
C1193: x39+x44-y39_44 <=1 
C1194: x39+x45 <=1 
C1195: x39+x48 <=1 
C1196: x39+x50 <=1 
C1197: x39+x51 <=1 
C1198: x39+x52 <=1 
C1199: x39+x53 <=1 
C1200: x39+x54-y39_54 <=1 
C1201: x39+x55 <=1 
C1202: x39+x56 <=1 
C1203: x39+x57 <=1 
C1204: x39+x60 <=1 
C1205: x39+x61-y39_61 <=1 
C1206: x39+x66 <=1 
C1207: x39+x67-y39_67 <=1 
C1208: x40+x41-y40_41 <=1 
C1209: x40+x43 <=1 
C1210: x40+x45-y40_45 <=1 
C1211: x40+x46-y40_46 <=1 
C1212: x40+x47-y40_47 <=1 
C1213: x40+x49-y40_49 <=1 
C1214: x40+x50-y40_50 <=1 
C1215: x40+x51 <=1 
C1216: x40+x53 <=1 
C1217: x40+x55-y40_55 <=1 
C1218: x40+x56-y40_56 <=1 
C1219: x40+x61-y40_61 <=1 
C1220: x40+x63-y40_63 <=1 
C1221: x40+x66 <=1 
C1222: x40+x68 <=1 
C1223: x41+x42-y41_42 <=1 
C1224: x41+x43 <=1 
C1225: x41+x45 <=1 
C1226: x41+x46-y41_46 <=1 
C1227: x41+x48 <=1 
C1228: x41+x49-y41_49 <=1 
C1229: x41+x51 <=1 
C1230: x41+x54 <=1 
C1231: x41+x55 <=1 
C1232: x41+x56 <=1 
C1233: x41+x57-y41_57 <=1 
C1234: x41+x58 <=1 
C1235: x41+x59-y41_59 <=1 
C1236: x41+x61 <=1 
C1237: x41+x62-y41_62 <=1 
C1238: x41+x63 <=1 
C1239: x41+x64-y41_64 <=1 
C1240: x41+x65-y41_65 <=1 
C1241: x41+x68-y41_68 <=1 
C1242: x42+x43 <=1 
C1243: x42+x44-y42_44 <=1 
C1244: x42+x46 <=1 
C1245: x42+x48-y42_48 <=1 
C1246: x42+x49 <=1 
C1247: x42+x50 <=1 
C1248: x42+x52-y42_52 <=1 
C1249: x42+x55-y42_55 <=1 
C1250: x42+x56-y42_56 <=1 
C1251: x42+x58-y42_58 <=1 
C1252: x42+x59-y42_59 <=1 
C1253: x42+x60 <=1 
C1254: x42+x61 <=1 
C1255: x42+x64 <=1 
C1256: x42+x66 <=1 
C1257: x42+x67-y42_67 <=1 
C1258: x42+x69-y42_69 <=1 
C1259: x43+x45 <=1 
C1260: x43+x46 <=1 
C1261: x43+x48-y43_48 <=1 
C1262: x43+x49 <=1 
C1263: x43+x52 <=1 
C1264: x43+x53 <=1 
C1265: x43+x54-y43_54 <=1 
C1266: x43+x55-y43_55 <=1 
C1267: x43+x56-y43_56 <=1 
C1268: x43+x57 <=1 
C1269: x43+x58-y43_58 <=1 
C1270: x43+x59-y43_59 <=1 
C1271: x43+x60-y43_60 <=1 
C1272: x43+x61-y43_61 <=1 
C1273: x43+x62-y43_62 <=1 
C1274: x43+x63 <=1 
C1275: x43+x65 <=1 
C1276: x43+x67-y43_67 <=1 
C1277: x43+x69-y43_69 <=1 
C1278: x44+x46 <=1 
C1279: x44+x50-y44_50 <=1 
C1280: x44+x52 <=1 
C1281: x44+x56 <=1 
C1282: x44+x58 <=1 
C1283: x44+x59 <=1 
C1284: x44+x60-y44_60 <=1 
C1285: x44+x63-y44_63 <=1 
C1286: x45+x46 <=1 
C1287: x45+x49 <=1 
C1288: x45+x50 <=1 
C1289: x45+x52-y45_52 <=1 
C1290: x45+x53 <=1 
C1291: x45+x55-y45_55 <=1 
C1292: x45+x56 <=1 
C1293: x45+x57-y45_57 <=1 
C1294: x45+x58-y45_58 <=1 
C1295: x45+x59-y45_59 <=1 
C1296: x45+x60-y45_60 <=1 
C1297: x45+x63 <=1 
C1298: x45+x64-y45_64 <=1 
C1299: x45+x65-y45_65 <=1 
C1300: x45+x66-y45_66 <=1 
C1301: x45+x68-y45_68 <=1 
C1302: x46+x52-y46_52 <=1 
C1303: x46+x53 <=1 
C1304: x46+x54 <=1 
C1305: x46+x55 <=1 
C1306: x46+x58 <=1 
C1307: x46+x59-y46_59 <=1 
C1308: x46+x61 <=1 
C1309: x46+x62 <=1 
C1310: x46+x63-y46_63 <=1 
C1311: x46+x67 <=1 
C1312: x47+x48-y47_48 <=1 
C1313: x47+x49-y47_49 <=1 
C1314: x47+x51-y47_51 <=1 
C1315: x47+x52-y47_52 <=1 
C1316: x47+x54-y47_54 <=1 
C1317: x47+x55-y47_55 <=1 
C1318: x47+x56 <=1 
C1319: x47+x57 <=1 
C1320: x47+x58-y47_58 <=1 
C1321: x47+x59 <=1 
C1322: x47+x60 <=1 
C1323: x47+x62 <=1 
C1324: x47+x63-y47_63 <=1 
C1325: x47+x64-y47_64 <=1 
C1326: x47+x65 <=1 
C1327: x47+x67-y47_67 <=1 
C1328: x47+x68 <=1 
C1329: x47+x69-y47_69 <=1 
C1330: x48+x50 <=1 
C1331: x48+x51-y48_51 <=1 
C1332: x48+x53-y48_53 <=1 
C1333: x48+x55 <=1 
C1334: x48+x56-y48_56 <=1 
C1335: x48+x57-y48_57 <=1 
C1336: x48+x58 <=1 
C1337: x48+x59 <=1 
C1338: x48+x60 <=1 
C1339: x48+x61 <=1 
C1340: x48+x62 <=1 
C1341: x48+x65-y48_65 <=1 
C1342: x48+x66 <=1 
C1343: x48+x67 <=1 
C1344: x49+x50 <=1 
C1345: x49+x54-y49_54 <=1 
C1346: x49+x58 <=1 
C1347: x49+x59 <=1 
C1348: x49+x60-y49_60 <=1 
C1349: x49+x63 <=1 
C1350: x49+x64 <=1 
C1351: x49+x67 <=1 
C1352: x50+x51 <=1 
C1353: x50+x52 <=1 
C1354: x50+x53 <=1 
C1355: x50+x54 <=1 
C1356: x50+x55 <=1 
C1357: x50+x56 <=1 
C1358: x50+x58-y50_58 <=1 
C1359: x50+x60 <=1 
C1360: x50+x62-y50_62 <=1 
C1361: x50+x65-y50_65 <=1 
C1362: x50+x66-y50_66 <=1 
C1363: x50+x67-y50_67 <=1 
C1364: x50+x68 <=1 
C1365: x50+x69 <=1 
C1366: x51+x52 <=1 
C1367: x51+x54-y51_54 <=1 
C1368: x51+x56 <=1 
C1369: x51+x57-y51_57 <=1 
C1370: x51+x58 <=1 
C1371: x51+x59 <=1 
C1372: x51+x61-y51_61 <=1 
C1373: x51+x65 <=1 
C1374: x51+x67 <=1 
C1375: x52+x53-y52_53 <=1 
C1376: x52+x54-y52_54 <=1 
C1377: x52+x58-y52_58 <=1 
C1378: x52+x59-y52_59 <=1 
C1379: x52+x61-y52_61 <=1 
C1380: x52+x62 <=1 
C1381: x52+x66-y52_66 <=1 
C1382: x52+x67 <=1 
C1383: x52+x68-y52_68 <=1 
C1384: x53+x54 <=1 
C1385: x53+x58 <=1 
C1386: x53+x59-y53_59 <=1 
C1387: x53+x60-y53_60 <=1 
C1388: x53+x61 <=1 
C1389: x53+x63 <=1 
C1390: x53+x66-y53_66 <=1 
C1391: x53+x67-y53_67 <=1 
C1392: x54+x55-y54_55 <=1 
C1393: x54+x56 <=1 
C1394: x54+x57 <=1 
C1395: x54+x58-y54_58 <=1 
C1396: x54+x59-y54_59 <=1 
C1397: x54+x61-y54_61 <=1 
C1398: x54+x63 <=1 
C1399: x54+x69 <=1 
C1400: x55+x56-y55_56 <=1 
C1401: x55+x57 <=1 
C1402: x55+x59-y55_59 <=1 
C1403: x55+x60-y55_60 <=1 
C1404: x55+x61-y55_61 <=1 
C1405: x55+x62-y55_62 <=1 
C1406: x55+x64-y55_64 <=1 
C1407: x55+x66 <=1 
C1408: x55+x67-y55_67 <=1 
C1409: x56+x59-y56_59 <=1 
C1410: x56+x62 <=1 
C1411: x56+x65 <=1 
C1412: x56+x66-y56_66 <=1 
C1413: x56+x69-y56_69 <=1 
C1414: x57+x59-y57_59 <=1 
C1415: x57+x60-y57_60 <=1 
C1416: x57+x61-y57_61 <=1 
C1417: x57+x66 <=1 
C1418: x57+x67 <=1 
C1419: x57+x69-y57_69 <=1 
C1420: x58+x59 <=1 
C1421: x58+x60 <=1 
C1422: x58+x62 <=1 
C1423: x58+x64 <=1 
C1424: x58+x67-y58_67 <=1 
C1425: x58+x69-y58_69 <=1 
C1426: x59+x61-y59_61 <=1 
C1427: x59+x62-y59_62 <=1 
C1428: x59+x63-y59_63 <=1 
C1429: x59+x64 <=1 
C1430: x59+x65-y59_65 <=1 
C1431: x59+x66 <=1 
C1432: x59+x68 <=1 
C1433: x59+x69 <=1 
C1434: x60+x62-y60_62 <=1 
C1435: x60+x63 <=1 
C1436: x60+x64 <=1 
C1437: x60+x65 <=1 
C1438: x60+x67 <=1 
C1439: x60+x68 <=1 
C1440: x60+x69 <=1 
C1441: x61+x65 <=1 
C1442: x61+x69-y61_69 <=1 
C1443: x62+x63-y62_63 <=1 
C1444: x62+x64 <=1 
C1445: x62+x65-y62_65 <=1 
C1446: x62+x67 <=1 
C1447: x63+x64 <=1 
C1448: x63+x66 <=1 
C1449: x63+x68 <=1 
C1450: x63+x69-y63_69 <=1 
C1451: x64+x66-y64_66 <=1 
C1452: x64+x68-y64_68 <=1 
C1453: x64+x69 <=1 
C1454: x65+x66 <=1 
C1455: x65+x67-y65_67 <=1 
C1456: x65+x68-y65_68 <=1 
C1457: x65+x69-y65_69 <=1 
C1458: x66+x67-y66_67 <=1 
C1459: x66+x69 <=1 
C1460: x68+x69-y68_69 <=1 

binary
x0
x1
x2
x3
x4
x5
x6
x7
x8
x9
x10
x11
x12
x13
x14
x15
x16
x17
x18
x19
x20
x21
x22
x23
x24
x25
x26
x27
x28
x29
x30
x31
x32
x33
x34
x35
x36
x37
x38
x39
x40
x41
x42
x43
x44
x45
x46
x47
x48
x49
x50
x51
x52
x53
x54
x55
x56
x57
x58
x59
x60
x61
x62
x63
x64
x65
x66
x67
x68
x69
